c CNF file corresponding to a (partial) station packing problem.
p cnf 6819 229
6803 6804 6805 6806 6807 6808 6809 6810 6811 6812 6813 6814 6815 6816 6817 6818 6819 0
-6803 -6804 0
-6803 -6805 0
-6803 -6806 0
-6803 -6807 0
-6803 -6808 0
-6803 -6809 0
-6803 -6810 0
-6803 -6811 0
-6803 -6812 0
-6803 -6813 0
-6803 -6814 0
-6803 -6815 0
-6803 -6816 0
-6803 -6817 0
-6803 -6818 0
-6803 -6819 0
-6804 -6805 0
-6804 -6806 0
-6804 -6807 0
-6804 -6808 0
-6804 -6809 0
-6804 -6810 0
-6804 -6811 0
-6804 -6812 0
-6804 -6813 0
-6804 -6814 0
-6804 -6815 0
-6804 -6816 0
-6804 -6817 0
-6804 -6818 0
-6804 -6819 0
-6805 -6806 0
-6805 -6807 0
-6805 -6808 0
-6805 -6809 0
-6805 -6810 0
-6805 -6811 0
-6805 -6812 0
-6805 -6813 0
-6805 -6814 0
-6805 -6815 0
-6805 -6816 0
-6805 -6817 0
-6805 -6818 0
-6805 -6819 0
-6806 -6807 0
-6806 -6808 0
-6806 -6809 0
-6806 -6810 0
-6806 -6811 0
-6806 -6812 0
-6806 -6813 0
-6806 -6814 0
-6806 -6815 0
-6806 -6816 0
-6806 -6817 0
-6806 -6818 0
-6806 -6819 0
-6807 -6808 0
-6807 -6809 0
-6807 -6810 0
-6807 -6811 0
-6807 -6812 0
-6807 -6813 0
-6807 -6814 0
-6807 -6815 0
-6807 -6816 0
-6807 -6817 0
-6807 -6818 0
-6807 -6819 0
-6808 -6809 0
-6808 -6810 0
-6808 -6811 0
-6808 -6812 0
-6808 -6813 0
-6808 -6814 0
-6808 -6815 0
-6808 -6816 0
-6808 -6817 0
-6808 -6818 0
-6808 -6819 0
-6809 -6810 0
-6809 -6811 0
-6809 -6812 0
-6809 -6813 0
-6809 -6814 0
-6809 -6815 0
-6809 -6816 0
-6809 -6817 0
-6809 -6818 0
-6809 -6819 0
-6810 -6811 0
-6810 -6812 0
-6810 -6813 0
-6810 -6814 0
-6810 -6815 0
-6810 -6816 0
-6810 -6817 0
-6810 -6818 0
-6810 -6819 0
-6811 -6812 0
-6811 -6813 0
-6811 -6814 0
-6811 -6815 0
-6811 -6816 0
-6811 -6817 0
-6811 -6818 0
-6811 -6819 0
-6812 -6813 0
-6812 -6814 0
-6812 -6815 0
-6812 -6816 0
-6812 -6817 0
-6812 -6818 0
-6812 -6819 0
-6813 -6814 0
-6813 -6815 0
-6813 -6816 0
-6813 -6817 0
-6813 -6818 0
-6813 -6819 0
-6814 -6815 0
-6814 -6816 0
-6814 -6817 0
-6814 -6818 0
-6814 -6819 0
-6815 -6816 0
-6815 -6817 0
-6815 -6818 0
-6815 -6819 0
-6816 -6817 0
-6816 -6818 0
-6816 -6819 0
-6817 -6818 0
-6817 -6819 0
-6818 -6819 0
1 2 3 4 5 6 7 8 9 10 11 12 13 14 0
-1 -2 0
-1 -3 0
-1 -4 0
-1 -5 0
-1 -6 0
-1 -7 0
-1 -8 0
-1 -9 0
-1 -10 0
-1 -11 0
-1 -12 0
-1 -13 0
-1 -14 0
-2 -3 0
-2 -4 0
-2 -5 0
-2 -6 0
-2 -7 0
-2 -8 0
-2 -9 0
-2 -10 0
-2 -11 0
-2 -12 0
-2 -13 0
-2 -14 0
-3 -4 0
-3 -5 0
-3 -6 0
-3 -7 0
-3 -8 0
-3 -9 0
-3 -10 0
-3 -11 0
-3 -12 0
-3 -13 0
-3 -14 0
-4 -5 0
-4 -6 0
-4 -7 0
-4 -8 0
-4 -9 0
-4 -10 0
-4 -11 0
-4 -12 0
-4 -13 0
-4 -14 0
-5 -6 0
-5 -7 0
-5 -8 0
-5 -9 0
-5 -10 0
-5 -11 0
-5 -12 0
-5 -13 0
-5 -14 0
-6 -7 0
-6 -8 0
-6 -9 0
-6 -10 0
-6 -11 0
-6 -12 0
-6 -13 0
-6 -14 0
-7 -8 0
-7 -9 0
-7 -10 0
-7 -11 0
-7 -12 0
-7 -13 0
-7 -14 0
-8 -9 0
-8 -10 0
-8 -11 0
-8 -12 0
-8 -13 0
-8 -14 0
-9 -10 0
-9 -11 0
-9 -12 0
-9 -13 0
-9 -14 0
-10 -11 0
-10 -12 0
-10 -13 0
-10 -14 0
-11 -12 0
-11 -13 0
-11 -14 0
-12 -13 0
-12 -14 0
-13 -14 0
